c Output_time 26.03.2020 18:15:26_+0100 1585242926662403320
c ** Program information **
c program_name                          "QBRG_debug"
c version                               "0.3.20"
c date                                  "25.3.2020"
c gid_id                                "673970833836058123f633335630c185360d632e"
c author                                "Oliver Kullmann"
c url                                   "https://github.com/OKullmann/oklibrary/blob/master/Satisfiability/Transformers/Generators/Random/QBRG.cpp"
c ** Machine information **
c machine_name                          "chyna-Lenovo-G50-70"
c bogomips                              3791.08
c ** Compilation information **
c compiler_version                      "g++ 7.5.0"
c compilation_date                      "Mar_26_2020 11:16:30"
c compilation_options                   "--std=c++17 -pedantic -fmax-errors=5 -Wall -Wextra -g -D_GLIBCXX_DEBUG"
c NDEBUG                                0
c OPTIMIZE                              0
c ** Parameters **
c command-line                          "./QBRG_debug" "a40 e40 a40 40" "536*1,1|2-2,1|3-3,1|4-4,1" "" "1,t" ""
c output                                "QuBlRaGe_160_536_1585242926662227568.qdimacs"
c options                               "filtered,renamed"
c num_quantifier_blocks                 4
c  quantifier_blocks                    1:a1-40 2:e41-80 3:a81-120 4:e121-160
c num_clause-blocks                     1
c  clause-blocks                        536 * {1-40,1,1/2} | {41-80,1,1/2} | {81-120,1,1/2} | {121-160,1,1/2}
c num_e-seeds                           37+2=39
c  e-seeds                              1 0 1 0 5 160 2 40 0 40 1 40 0 40 1 536 4 1 1 1 1 2 2 2 1 1 2 3 3 1 1 2 4 4 1 1 2 1 1585242926662226660
p cnf 160 536
a 1 2 3 4 5 6 7 8 9 10 11 12 13 14 15 16 17 18 19 20 21 22 23 24 25 26 27 28 29 30 31 32 33 34 35 36 37 38 39 40 0
e 41 42 43 44 45 46 47 48 49 50 51 52 53 54 55 56 57 58 59 60 61 62 63 64 65 66 67 68 69 70 71 72 73 74 75 76 77 78 79 80 0
a 81 82 83 84 85 86 87 88 89 90 91 92 93 94 95 96 97 98 99 100 101 102 103 104 105 106 107 108 109 110 111 112 113 114 115 116 117 118 119 120 0
e 121 122 123 124 125 126 127 128 129 130 131 132 133 134 135 136 137 138 139 140 141 142 143 144 145 146 147 148 149 150 151 152 153 154 155 156 157 158 159 160 0
36 67 -104 -121 0
-13 -43 -114 -121 0
22 -64 115 -121 0
-23 78 115 -121 0
-40 -52 87 121 0
-37 67 -88 121 0
8 -56 100 121 0
-31 41 103 121 0
-14 62 -105 121 0
13 -76 112 121 0
29 53 116 121 0
-14 50 82 -122 0
9 -68 83 -122 0
-13 41 -84 -122 0
26 -55 89 -122 0
-6 -59 95 -122 0
-8 62 -99 -122 0
-25 51 -105 -122 0
-10 -76 -114 -122 0
25 49 -118 -122 0
13 -70 -82 122 0
31 53 86 122 0
21 -42 -90 122 0
-17 -76 -96 122 0
33 59 108 122 0
9 -67 -109 122 0
7 -74 -113 122 0
3 -68 85 -123 0
27 74 87 -123 0
-5 -48 -91 -123 0
-23 -61 95 -123 0
20 62 105 -123 0
31 63 -107 -123 0
-19 56 88 123 0
-13 -62 90 123 0
33 -43 -91 123 0
-29 64 -96 123 0
-37 45 98 123 0
-15 -55 -101 123 0
-15 -62 -108 123 0
-8 65 -81 -124 0
-17 -44 81 -124 0
40 77 -97 -124 0
21 -59 99 -124 0
40 64 110 -124 0
39 61 -113 -124 0
-22 -63 -81 124 0
35 65 99 124 0
-9 -72 103 124 0
28 -41 114 124 0
10 -49 -81 -125 0
-19 -53 81 -125 0
27 -73 -86 -125 0
-38 -54 86 -125 0
-33 -42 87 -125 0
33 -67 -89 -125 0
16 45 94 -125 0
9 75 -107 -125 0
34 48 107 -125 0
26 72 -110 -125 0
-25 66 -116 -125 0
-33 77 81 125 0
28 -49 -92 125 0
34 -43 93 125 0
40 57 94 125 0
9 66 -101 125 0
29 -59 104 125 0
14 43 -112 125 0
-5 -53 -117 125 0
22 42 119 125 0
18 -78 99 -126 0
28 -70 -107 -126 0
14 47 107 -126 0
-5 73 107 -126 0
-2 -62 -115 -126 0
-39 -69 118 -126 0
-14 58 -83 126 0
3 -51 83 126 0
-1 -51 94 126 0
-37 45 -100 126 0
-39 -48 -118 126 0
-14 -78 -120 126 0
26 -76 -81 -127 0
-3 -45 -83 -127 0
-21 58 91 -127 0
-37 56 93 -127 0
-9 74 -95 -127 0
-37 75 97 -127 0
7 41 100 -127 0
-27 79 113 -127 0
38 -53 -115 -127 0
37 76 -117 -127 0
-24 70 -85 127 0
-23 -59 -110 127 0
-1 59 112 127 0
9 -44 -114 127 0
-15 55 116 127 0
-28 -48 117 127 0
30 54 117 127 0
-26 -57 85 -128 0
13 -55 92 -128 0
-30 69 93 -128 0
10 -61 97 -128 0
21 49 -101 -128 0
-14 60 -101 -128 0
34 64 -111 -128 0
-3 -77 -113 -128 0
-39 65 82 128 0
-36 48 87 128 0
-8 62 89 128 0
1 72 90 128 0
10 -54 -93 128 0
29 59 106 128 0
-25 42 -107 128 0
-6 62 110 128 0
-11 41 -113 128 0
32 75 -113 128 0
10 -80 81 -129 0
-22 -57 -87 -129 0
5 66 -90 -129 0
25 -48 -95 -129 0
7 62 -106 -129 0
7 -58 116 -129 0
35 -50 82 129 0
-5 79 84 129 0
33 51 -86 129 0
-7 70 92 129 0
3 -53 -95 129 0
-20 57 98 129 0
-24 -61 101 129 0
4 -67 -107 129 0
32 56 -110 129 0
-21 -49 -113 129 0
21 -46 -114 129 0
32 -58 115 129 0
7 52 -81 -130 0
18 55 84 -130 0
30 75 86 -130 0
-1 -77 -87 -130 0
-19 64 87 -130 0
14 -80 -103 -130 0
19 64 -120 -130 0
20 62 120 -130 0
-18 71 -90 130 0
31 -49 -92 130 0
-39 -50 92 130 0
29 -64 92 130 0
4 48 90 -131 0
-25 -71 93 -131 0
18 68 95 -131 0
31 66 -100 -131 0
5 71 -100 -131 0
-37 -77 -100 -131 0
16 -67 -89 131 0
5 -58 90 131 0
4 45 -97 131 0
-16 68 -98 131 0
33 73 100 131 0
-31 -77 -102 131 0
8 -53 115 131 0
1 -78 115 131 0
-10 72 -103 -132 0
-22 48 -104 -132 0
4 49 106 -132 0
-6 -55 -113 -132 0
-37 -44 -84 132 0
-34 63 -86 132 0
40 -55 95 132 0
-11 63 -110 132 0
8 74 111 132 0
-20 44 83 -133 0
-5 -69 89 -133 0
9 41 -93 -133 0
25 -73 96 -133 0
4 -77 120 -133 0
-34 -41 -103 133 0
15 -44 -109 133 0
20 -57 109 133 0
10 69 113 133 0
-29 -70 -116 133 0
-39 -49 83 -134 0
-13 48 -84 -134 0
21 73 -85 -134 0
10 41 90 -134 0
-19 75 93 -134 0
-1 -41 -98 -134 0
25 -43 98 -134 0
-12 -43 -105 -134 0
-10 70 -106 -134 0
10 -61 109 -134 0
29 71 114 -134 0
5 76 89 134 0
-17 60 96 134 0
-30 70 99 134 0
2 -75 -111 134 0
-34 -59 112 134 0
-9 43 120 134 0
20 -65 -81 -135 0
-28 -63 -82 -135 0
-1 -75 93 -135 0
-36 41 -95 -135 0
36 -80 98 -135 0
-18 -67 107 -135 0
31 -49 91 135 0
-25 74 92 135 0
15 54 105 135 0
-8 43 -107 135 0
-17 -56 -109 135 0
19 63 -109 135 0
6 -43 -119 135 0
-6 -80 -82 -136 0
-4 43 -113 -136 0
-9 -74 -115 -136 0
6 -57 -87 136 0
11 -50 -95 136 0
-15 60 -114 136 0
-2 -71 116 136 0
-12 80 116 136 0
28 -52 120 136 0
-10 -54 96 -137 0
-24 75 100 -137 0
8 -46 103 -137 0
-8 51 -105 -137 0
22 -68 105 -137 0
11 60 106 -137 0
-17 -45 -113 -137 0
-6 44 87 137 0
21 -58 93 137 0
37 -56 -103 137 0
-22 -71 -110 137 0
8 -75 -110 137 0
8 -46 -115 137 0
16 -61 116 137 0
23 -71 116 137 0
-13 -57 86 -138 0
7 -46 -97 -138 0
26 -74 104 -138 0
-36 -71 107 -138 0
11 60 116 -138 0
33 -59 -90 138 0
-33 -80 -100 138 0
-37 42 116 138 0
39 59 -117 138 0
-30 -45 119 138 0
22 -77 -83 -139 0
10 -51 87 -139 0
-39 -56 -99 -139 0
23 80 100 -139 0
10 -54 102 -139 0
-9 67 -115 -139 0
32 58 -118 -139 0
-11 41 -90 139 0
2 -66 110 139 0
-3 55 -115 139 0
-16 -68 118 139 0
9 -71 -81 -140 0
29 -57 83 -140 0
-30 -69 -86 -140 0
-40 -70 -98 -140 0
-13 54 -110 -140 0
13 -76 -112 -140 0
14 -73 113 -140 0
-28 -49 -117 -140 0
16 65 -117 -140 0
32 68 88 140 0
-32 -79 88 140 0
-19 48 96 140 0
7 44 -102 140 0
-38 -45 111 140 0
-15 -63 -119 140 0
-20 65 82 -141 0
13 47 -84 -141 0
-1 42 88 -141 0
-17 49 88 -141 0
-3 55 -102 -141 0
-39 -70 -106 -141 0
-40 -41 -109 -141 0
-13 -70 -110 -141 0
-16 -65 81 141 0
24 -48 -82 141 0
-8 -73 -102 141 0
-13 41 105 141 0
-11 -45 -109 141 0
24 -68 110 141 0
14 -66 119 141 0
22 54 -101 -142 0
-20 46 -105 -142 0
21 45 -107 -142 0
-9 44 110 -142 0
13 73 -111 -142 0
-1 -51 -115 -142 0
-29 -41 -117 -142 0
-12 56 81 142 0
9 43 82 142 0
-19 -74 82 142 0
11 54 -84 142 0
-11 -68 95 142 0
-26 -76 102 142 0
5 51 -106 142 0
-25 -76 -106 142 0
5 -64 -108 142 0
-21 -63 110 142 0
19 57 -111 142 0
26 -50 -88 -143 0
-33 -55 90 -143 0
-40 55 -99 -143 0
16 63 101 -143 0
-6 -64 -91 143 0
8 -60 -99 143 0
-15 -64 -104 143 0
-26 -74 105 143 0
15 -49 120 143 0
13 -61 -93 -144 0
-9 42 -102 -144 0
-14 58 103 -144 0
-24 -71 105 -144 0
20 -74 -119 -144 0
-33 -78 -119 -144 0
-8 -44 85 144 0
19 -68 -88 144 0
11 -80 90 144 0
26 71 111 144 0
6 -61 116 144 0
16 58 119 144 0
-14 45 84 -145 0
-33 -75 -91 -145 0
24 -41 101 -145 0
37 -75 105 -145 0
39 68 -113 -145 0
6 -47 -114 -145 0
-17 -70 120 -145 0
8 -68 88 145 0
36 67 -90 145 0
37 -49 96 145 0
36 -54 118 145 0
-24 42 119 145 0
-26 -54 81 -146 0
-30 68 -87 -146 0
30 -63 -96 -146 0
7 79 100 -146 0
-6 48 102 -146 0
-3 -76 -104 -146 0
-36 -58 117 -146 0
9 80 118 -146 0
34 79 -83 146 0
26 64 87 146 0
38 -41 -95 146 0
-31 45 110 146 0
-6 -76 -111 146 0
19 48 113 146 0
23 -78 -116 146 0
-5 -80 81 -147 0
-40 -45 86 -147 0
30 -43 -87 -147 0
20 46 99 -147 0
-14 -70 -103 -147 0
-16 67 -107 -147 0
-17 -54 108 -147 0
-25 80 109 -147 0
32 -77 -111 -147 0
-10 -41 81 147 0
-4 -53 -83 147 0
-17 -57 98 147 0
-4 -49 100 147 0
-14 60 -104 147 0
29 -70 -104 147 0
-29 80 -107 147 0
30 -80 81 -148 0
-14 73 91 -148 0
-23 73 94 -148 0
11 59 97 -148 0
-18 -46 -110 -148 0
-31 -42 -113 -148 0
-33 55 -82 148 0
18 67 -99 148 0
13 -77 -102 148 0
-31 69 104 148 0
-14 -51 -113 148 0
-32 65 83 -149 0
40 -69 83 -149 0
33 74 85 -149 0
34 -80 88 -149 0
-39 -62 89 -149 0
2 -78 89 -149 0
-36 -43 -94 -149 0
-19 -51 -97 -149 0
36 80 100 -149 0
-28 -72 115 -149 0
16 54 -82 149 0
-40 -57 -88 149 0
19 -71 92 149 0
20 -72 98 149 0
-18 49 -99 149 0
-32 65 108 149 0
-28 49 -114 149 0
-1 57 115 149 0
20 -64 -117 149 0
39 -54 85 -150 0
13 -42 -92 -150 0
-14 -56 -93 -150 0
27 65 -97 -150 0
37 -49 107 -150 0
33 79 119 -150 0
4 -45 81 150 0
-16 -80 82 150 0
24 -68 93 150 0
-36 -63 -99 150 0
-34 65 102 150 0
-15 -78 114 150 0
-26 -75 -120 150 0
39 -72 85 -151 0
-3 -72 90 -151 0
-30 -58 97 -151 0
-23 -69 -99 -151 0
-12 65 -109 -151 0
-30 45 113 -151 0
-21 53 -115 -151 0
27 -65 -115 -151 0
-25 50 89 151 0
33 -77 89 151 0
18 -49 93 151 0
-20 54 93 151 0
-39 -57 -96 151 0
-20 -76 -103 151 0
14 -64 -111 151 0
-19 -61 112 151 0
7 -54 -116 151 0
-19 69 90 -152 0
-10 72 93 -152 0
-20 -74 108 -152 0
-3 47 111 -152 0
-4 47 116 -152 0
-35 64 118 -152 0
4 -79 82 152 0
-29 65 83 152 0
-39 -53 103 152 0
-28 52 -108 152 0
-24 -63 -108 152 0
22 69 110 152 0
7 -48 111 152 0
38 50 112 152 0
-6 66 -114 152 0
37 -65 -115 152 0
-32 66 85 -153 0
27 -52 -111 -153 0
-27 -64 -117 -153 0
6 -41 -90 153 0
-38 -71 92 153 0
-9 79 92 153 0
-35 -54 -95 153 0
-13 -50 100 153 0
34 56 112 153 0
-15 56 113 153 0
1 78 -96 -154 0
18 -43 100 -154 0
31 -68 102 -154 0
-27 79 -112 -154 0
-25 -79 119 -154 0
-10 -69 87 154 0
7 -74 -105 154 0
-37 47 -107 154 0
1 -56 107 154 0
-24 -60 -111 154 0
37 -78 112 154 0
-27 -79 115 154 0
-29 71 83 -155 0
-32 55 -87 -155 0
10 -69 -91 -155 0
23 69 -92 -155 0
-11 80 -97 -155 0
-5 68 -83 155 0
3 -42 87 155 0
10 63 114 155 0
-6 79 -84 -156 0
9 -52 -93 -156 0
-14 -52 98 -156 0
-21 -64 -110 -156 0
24 44 111 -156 0
-27 76 113 -156 0
25 66 114 -156 0
-38 45 110 156 0
-35 53 -113 156 0
35 70 113 156 0
20 53 -81 -157 0
30 -73 95 -157 0
-4 -68 -97 -157 0
15 66 -100 -157 0
1 -50 -104 -157 0
11 75 108 -157 0
-16 64 -118 -157 0
31 -59 -120 -157 0
16 54 90 157 0
19 -52 95 157 0
28 53 104 157 0
9 66 116 157 0
-2 -56 118 157 0
-32 -56 -108 -158 0
18 68 113 -158 0
25 69 89 158 0
-18 -54 92 158 0
-31 -61 -96 158 0
-6 49 97 158 0
8 73 104 158 0
10 -54 116 158 0
-16 76 -87 -159 0
5 48 89 -159 0
27 66 94 -159 0
21 53 95 -159 0
-34 43 -107 -159 0
7 52 107 -159 0
-12 -79 -118 -159 0
5 51 -84 159 0
10 -61 84 159 0
-30 -42 88 159 0
9 -69 -89 159 0
3 47 91 159 0
-7 62 100 159 0
24 64 107 159 0
6 80 -115 159 0
-30 79 -86 -160 0
-36 -56 -89 -160 0
-21 -48 97 -160 0
-14 41 101 -160 0
27 -69 104 -160 0
2 -51 -106 -160 0
-22 -57 107 -160 0
32 78 -110 -160 0
-25 57 -115 -160 0
-21 -71 -117 -160 0
-24 -73 88 160 0
21 64 -99 160 0
-36 -78 -99 160 0
-34 61 -104 160 0
11 50 -113 160 0
-1 -61 -116 160 0
-27 78 116 160 0
